NAME : u574
TYPE : OP
DIMENSION : 574
COST_LIMIT : 18453
ROUTE_NODES : 344
ROUTE_SCORE : 344
ROUTE_COST : 18427
NODE_SEQUENCE_SECTION
1
569
568
567
566
565
564
563
562
561
6
5
7
8
9
10
558
557
556
555
554
553
552
551
550
546
547
548
543
541
542
540
539
538
537
536
530
531
532
533
535
534
504
505
503
502
501
500
499
498
509
510
508
506
507
481
482
483
484
472
471
473
480
479
478
514
477
515
516
517
518
519
247
246
245
203
202
248
249
201
200
199
198
197
196
195
190
194
193
191
278
277
276
275
274
273
264
265
389
388
387
390
261
260
259
258
257
255
256
395
397
396
461
462
463
459
458
460
398
399
400
401
449
448
443
444
447
445
446
433
432
431
430
424
423
422
421
420
419
418
417
416
415
414
413
412
358
356
355
354
353
360
359
411
410
409
408
407
361
362
363
364
365
366
350
351
349
367
368
369
370
371
341
342
340
338
339
372
373
374
375
378
380
379
334
333
332
329
328
326
325
324
320
318
317
316
315
314
313
312
311
300
301
302
303
304
306
305
296
295
294
293
288
287
286
174
173
175
176
177
178
179
180
181
182
183
184
185
186
208
235
237
236
231
230
229
228
227
226
225
224
223
221
222
16
15
17
18
21
22
219
218
217
216
212
214
213
166
167
154
155
163
162
161
160
156
157
158
159
150
149
148
147
146
144
143
142
141
140
139
138
137
136
135
133
131
132
124
125
126
70
69
67
68
71
72
73
74
115
116
117
114
118
119
120
121
122
99
100
101
102
103
104
106
105
107
108
109
110
85
86
84
83
82
81
41
40
39
42
43
80
56
57
55
54
52
51
50
49
48
571
572
573
574
-1
DEPOT_SECTION
1
-1
EOF
